JulietBench/Juliet_Based_Patch_Bench/linux/CWE-189-Numeric-Errors/CVE_2010_3067_75e1c70fc31490ef8a373ea2a4bea2524099b478/Resultdo_io_submit_Snippet_patch1NEQ.smt2
; benchmark generated from python API
(set-info :status unknown)
(declare-fun R () (_ BitVec 32))
(declare-fun rdi () (_ BitVec 64))
(assert
 (let (($x226 (= (_ bv4294967274 32) R)))
 (let ((?x15 (bvlshr rdi (_ bv63 64))))
 (let ((?x13 ((_ extract 0 0) ?x15)))
 (let (($x7 (and (distinct (_ bv0 1) ?x13) true)))
 (let (($x227 (and $x7 $x226)))
 (let ((?x59 ((_ extract 31 0) rdi)))
 (let (($x55 (= R ?x59)))
 (let (($x37 (= (_ bv0 1) ?x13)))
 (let (($x60 (bvsge (_ bv230584300921369395 64) rdi)))
 (let (($x232 (and $x60 $x37 $x55)))
 (let (($x230 (= (_ bv858993459 32) R)))
 (let (($x222 (bvslt (_ bv230584300921369395 64) rdi)))
 (let (($x231 (and $x222 $x37 $x230)))
 (let (($x233 (or $x231 $x232 $x227)))
 (let (($x236 (not $x233)))
 (let (($x51 (and $x37 $x55)))
 (let (($x228 (or $x51 $x227)))
 (let (($x235 (not $x228)))
 (let (($x237 (and $x235 $x236)))
 (let (($x234 (and $x228 $x233)))
 (let (($x238 (or $x234 $x237)))
 (not $x238)))))))))))))))))))))))
(check-sat)
